param n := 120;
param c := 1000;
param : V : p w :=
   0	 380	 370
   1	 296	 286
   2	 354	 344
   3	 372	 362
   4	 304	 294
   5	 354	 344
   6	 476	 466
   7	 273	 263
   8	 281	 271
   9	 495	 485
  10	 263	 253
  11	 272	 262
  12	 386	 376
  13	 314	 304
  14	 330	 320
  15	 423	 413
  16	 298	 288
  17	 309	 299
  18	 383	 373
  19	 287	 277
  20	 360	 350
  21	 436	 426
  22	 273	 263
  23	 321	 311
  24	 490	 480
  25	 265	 255
  26	 275	 265
  27	 391	 381
  28	 269	 259
  29	 370	 360
  30	 409	 399
  31	 282	 272
  32	 339	 329
  33	 439	 429
  34	 284	 274
  35	 307	 297
  36	 405	 395
  37	 268	 258
  38	 357	 347
  39	 473	 463
  40	 267	 257
  41	 290	 280
  42	 508	 498
  43	 260	 250
  44	 262	 252
  45	 422	 412
  46	 268	 258
  47	 340	 330
  48	 509	 499
  49	 260	 250
  50	 261	 251
  51	 468	 458
  52	 277	 267
  53	 285	 275
  54	 360	 350
  55	 293	 283
  56	 377	 367
  57	 444	 434
  58	 287	 277
  59	 299	 289
  60	 380	 370
  61	 283	 273
  62	 367	 357
  63	 505	 495
  64	 260	 250
  65	 265	 255
  66	 474	 464
  67	 264	 254
  68	 292	 282
  69	 371	 361
  70	 300	 290
  71	 359	 349
  72	 361	 351
  73	 261	 251
  74	 408	 398
  75	 380	 370
  76	 297	 287
  77	 353	 343
  78	 438	 428
  79	 267	 257
  80	 325	 315
  81	 455	 445
  82	 282	 272
  83	 293	 283
  84	 450	 440
  85	 264	 254
  86	 316	 306
  87	 445	 435
  88	 289	 279
  89	 296	 286
  90	 461	 451
  91	 278	 268
  92	 291	 281
  93	 440	 430
  94	 271	 261
  95	 319	 309
  96	 378	 368
  97	 284	 274
  98	 368	 358
  99	 437	 427
 100	 260	 250
 101	 333	 323
 102	 454	 444
 103	 280	 270
 104	 296	 286
 105	 504	 494
 106	 260	 250
 107	 266	 256
 108	 378	 368
 109	 310	 300
 110	 342	 332
 111	 501	 491
 112	 263	 253
 113	 266	 256
 114	 436	 426
 115	 284	 274
 116	 310	 300
 117	 505	 495
 118	 260	 250
 119	 265	 255
;

set E :=
   0	   4
   0	   5
   0	   6
   0	   8
   0	  11
   0	  14
   0	  16
   0	  17
   0	  18
   0	  23
   0	  26
   0	  29
   0	  30
   0	  35
   0	  36
   0	  38
   0	  39
   0	  42
   0	  47
   0	  49
   0	  50
   0	  53
   0	  55
   0	  57
   0	  60
   0	  63
   0	  73
   0	  74
   0	  76
   0	  77
   0	  78
   0	  79
   0	  83
   0	  84
   0	  86
   0	 103
   0	 105
   0	 106
   0	 108
   0	 111
   0	 113
   0	 115
   0	 117
   0	 119
   1	   2
   1	   5
   1	   7
   1	  11
   1	  13
   1	  16
   1	  17
   1	  18
   1	  21
   1	  23
   1	  32
   1	  33
   1	  35
   1	  36
   1	  39
   1	  44
   1	  46
   1	  47
   1	  49
   1	  50
   1	  51
   1	  52
   1	  56
   1	  57
   1	  60
   1	  62
   1	  63
   1	  65
   1	  70
   1	  71
   1	  72
   1	  73
   1	  76
   1	  77
   1	  78
   1	  79
   1	  80
   1	  84
   1	  86
   1	  89
   1	  91
   1	  92
   1	  95
   1	 108
   1	 109
   1	 115
   1	 119
   2	   3
   2	   5
   2	  10
   2	  12
   2	  14
   2	  15
   2	  18
   2	  20
   2	  21
   2	  29
   2	  32
   2	  34
   2	  38
   2	  39
   2	  44
   2	  45
   2	  46
   2	  52
   2	  53
   2	  54
   2	  55
   2	  56
   2	  60
   2	  63
   2	  65
   2	  67
   2	  68
   2	  72
   2	  73
   2	  77
   2	  79
   2	  84
   2	  87
   2	  90
   2	  92
   2	  94
   2	  95
   2	  97
   2	  98
   2	 102
   2	 103
   2	 104
   2	 105
   2	 106
   2	 108
   2	 109
   2	 117
   3	   6
   3	  10
   3	  13
   3	  14
   3	  19
   3	  20
   3	  21
   3	  23
   3	  25
   3	  30
   3	  31
   3	  34
   3	  35
   3	  38
   3	  41
   3	  43
   3	  45
   3	  46
   3	  48
   3	  49
   3	  50
   3	  54
   3	  56
   3	  58
   3	  61
   3	  65
   3	  67
   3	  69
   3	  70
   3	  77
   3	  79
   3	  82
   3	  84
   3	  87
   3	  88
   3	  90
   3	  91
   3	  92
   3	  93
   3	  97
   3	  99
   3	 100
   3	 101
   3	 106
   3	 107
   3	 116
   3	 118
   3	 119
   4	   5
   4	   6
   4	   8
   4	   9
   4	  12
   4	  14
   4	  15
   4	  17
   4	  18
   4	  19
   4	  21
   4	  23
   4	  24
   4	  27
   4	  30
   4	  31
   4	  32
   4	  33
   4	  35
   4	  39
   4	  40
   4	  42
   4	  43
   4	  48
   4	  52
   4	  53
   4	  54
   4	  55
   4	  57
   4	  59
   4	  60
   4	  61
   4	  72
   4	  74
   4	  75
   4	  76
   4	  77
   4	  78
   4	  80
   4	  86
   4	  88
   4	  92
   4	  98
   4	  99
   4	 101
   4	 103
   4	 104
   4	 105
   4	 106
   4	 108
   4	 110
   4	 112
   4	 118
   5	   6
   5	   8
   5	   9
   5	  12
   5	  16
   5	  17
   5	  18
   5	  20
   5	  29
   5	  34
   5	  35
   5	  39
   5	  40
   5	  45
   5	  47
   5	  48
   5	  58
   5	  59
   5	  61
   5	  62
   5	  66
   5	  70
   5	  73
   5	  78
   5	  80
   5	  81
   5	  83
   5	  84
   5	  86
   5	  87
   5	  90
   5	  91
   5	  92
   5	  93
   5	  94
   5	  95
   5	  96
   5	  98
   5	 100
   5	 101
   5	 102
   5	 104
   5	 106
   5	 107
   5	 115
   5	 116
   5	 117
   6	   8
   6	   9
   6	  10
   6	  13
   6	  15
   6	  16
   6	  18
   6	  19
   6	  20
   6	  23
   6	  31
   6	  32
   6	  34
   6	  35
   6	  36
   6	  40
   6	  41
   6	  43
   6	  45
   6	  50
   6	  52
   6	  53
   6	  55
   6	  58
   6	  59
   6	  62
   6	  74
   6	  79
   6	  83
   6	  86
   6	  88
   6	  90
   6	  94
   6	  98
   6	  99
   6	 100
   6	 106
   6	 109
   6	 114
   6	 115
   6	 116
   7	   8
   7	   9
   7	  10
   7	  13
   7	  15
   7	  16
   7	  18
   7	  20
   7	  21
   7	  25
   7	  27
   7	  30
   7	  33
   7	  34
   7	  37
   7	  39
   7	  40
   7	  42
   7	  44
   7	  46
   7	  47
   7	  49
   7	  50
   7	  54
   7	  59
   7	  61
   7	  65
   7	  66
   7	  68
   7	  70
   7	  73
   7	  74
   7	  77
   7	  90
   7	  99
   7	 100
   7	 104
   7	 106
   7	 108
   7	 110
   7	 112
   7	 119
   8	  10
   8	  12
   8	  13
   8	  20
   8	  21
   8	  26
   8	  27
   8	  28
   8	  33
   8	  34
   8	  39
   8	  41
   8	  44
   8	  46
   8	  50
   8	  51
   8	  53
   8	  54
   8	  56
   8	  60
   8	  61
   8	  65
   8	  68
   8	  73
   8	  74
   8	  80
   8	  81
   8	  85
   8	  86
   8	  88
   8	  90
   8	  96
   8	  99
   8	 101
   8	 103
   8	 104
   8	 106
   8	 107
   8	 110
   8	 112
   8	 114
   8	 115
   8	 116
   8	 118
   8	 119
   9	  10
   9	  11
   9	  13
   9	  15
   9	  23
   9	  25
   9	  28
   9	  34
   9	  38
   9	  45
   9	  48
   9	  49
   9	  50
   9	  52
   9	  54
   9	  56
   9	  58
   9	  61
   9	  63
   9	  64
   9	  75
   9	  76
   9	  77
   9	  78
   9	  80
   9	  82
   9	  84
   9	  86
   9	  87
   9	  88
   9	  91
   9	  97
   9	 100
   9	 105
   9	 109
   9	 110
   9	 112
   9	 114
   9	 116
  10	  11
  10	  12
  10	  17
  10	  18
  10	  21
  10	  26
  10	  29
  10	  31
  10	  33
  10	  35
  10	  37
  10	  38
  10	  40
  10	  43
  10	  45
  10	  46
  10	  49
  10	  53
  10	  54
  10	  55
  10	  58
  10	  59
  10	  65
  10	  75
  10	  77
  10	  84
  10	  92
  10	  94
  10	  96
  10	  97
  10	  98
  10	  99
  10	 100
  10	 103
  10	 104
  10	 106
  10	 109
  10	 111
  10	 112
  10	 114
  10	 116
  10	 118
  10	 119
  11	  12
  11	  15
  11	  16
  11	  18
  11	  21
  11	  22
  11	  23
  11	  24
  11	  26
  11	  27
  11	  31
  11	  32
  11	  35
  11	  37
  11	  51
  11	  61
  11	  62
  11	  63
  11	  71
  11	  75
  11	  76
  11	  77
  11	  81
  11	  82
  11	  85
  11	  88
  11	  89
  11	  90
  11	  91
  11	  94
  11	  95
  11	  98
  11	  99
  11	 105
  11	 110
  11	 111
  12	  17
  12	  21
  12	  30
  12	  31
  12	  32
  12	  35
  12	  37
  12	  39
  12	  43
  12	  52
  12	  53
  12	  55
  12	  56
  12	  58
  12	  59
  12	  60
  12	  61
  12	  64
  12	  66
  12	  68
  12	  70
  12	  72
  12	  74
  12	  78
  12	  80
  12	  83
  12	  87
  12	  88
  12	  92
  12	  95
  12	  98
  12	  99
  12	 103
  12	 104
  12	 105
  12	 106
  12	 110
  12	 112
  12	 113
  12	 116
  12	 117
  12	 119
  13	  15
  13	  17
  13	  20
  13	  21
  13	  25
  13	  26
  13	  31
  13	  33
  13	  39
  13	  40
  13	  47
  13	  48
  13	  49
  13	  53
  13	  58
  13	  59
  13	  60
  13	  61
  13	  73
  13	  75
  13	  76
  13	  77
  13	  78
  13	  79
  13	  82
  13	  83
  13	  84
  13	  87
  13	  89
  13	  92
  13	  96
  13	  99
  13	 100
  13	 108
  13	 109
  13	 110
  13	 111
  13	 113
  13	 114
  13	 115
  13	 118
  14	  15
  14	  16
  14	  18
  14	  23
  14	  28
  14	  30
  14	  34
  14	  35
  14	  37
  14	  39
  14	  43
  14	  45
  14	  46
  14	  48
  14	  49
  14	  50
  14	  51
  14	  53
  14	  54
  14	  55
  14	  57
  14	  58
  14	  59
  14	  60
  14	  61
  14	  62
  14	  69
  14	  70
  14	  71
  14	  72
  14	  74
  14	  79
  14	  81
  14	  84
  14	  88
  14	  90
  14	  91
  14	  94
  14	  96
  14	 101
  14	 106
  14	 107
  14	 108
  14	 109
  14	 112
  14	 115
  14	 116
  14	 117
  15	  22
  15	  25
  15	  26
  15	  27
  15	  29
  15	  30
  15	  32
  15	  34
  15	  35
  15	  40
  15	  45
  15	  47
  15	  52
  15	  53
  15	  54
  15	  57
  15	  58
  15	  60
  15	  61
  15	  62
  15	  64
  15	  65
  15	  66
  15	  67
  15	  69
  15	  70
  15	  72
  15	  79
  15	  82
  15	  84
  15	  88
  15	  91
  15	  92
  15	  94
  15	  95
  15	  99
  15	 100
  15	 106
  15	 108
  15	 109
  15	 112
  15	 117
  15	 118
  15	 119
  16	  17
  16	  18
  16	  19
  16	  20
  16	  31
  16	  32
  16	  37
  16	  42
  16	  48
  16	  50
  16	  51
  16	  53
  16	  54
  16	  63
  16	  64
  16	  69
  16	  72
  16	  73
  16	  75
  16	  80
  16	  81
  16	  83
  16	  84
  16	  91
  16	  93
  16	  99
  16	 100
  16	 101
  16	 103
  16	 109
  16	 110
  16	 111
  16	 112
  16	 115
  16	 116
  16	 118
  16	 119
  17	  19
  17	  20
  17	  22
  17	  23
  17	  24
  17	  26
  17	  27
  17	  31
  17	  36
  17	  37
  17	  42
  17	  43
  17	  49
  17	  55
  17	  56
  17	  58
  17	  60
  17	  61
  17	  68
  17	  69
  17	  71
  17	  72
  17	  73
  17	  75
  17	  76
  17	  82
  17	  83
  17	  85
  17	  89
  17	  92
  17	  97
  17	 100
  17	 105
  17	 110
  17	 112
  17	 113
  17	 114
  17	 116
  17	 119
  18	  19
  18	  20
  18	  22
  18	  28
  18	  30
  18	  32
  18	  35
  18	  37
  18	  40
  18	  43
  18	  44
  18	  47
  18	  49
  18	  52
  18	  53
  18	  56
  18	  60
  18	  61
  18	  62
  18	  64
  18	  70
  18	  71
  18	  72
  18	  73
  18	  75
  18	  78
  18	  79
  18	  81
  18	  82
  18	  84
  18	  85
  18	  87
  18	  93
  18	  94
  18	  95
  18	  96
  18	  97
  18	  99
  18	 103
  18	 106
  18	 110
  18	 117
  18	 119
  19	  20
  19	  22
  19	  23
  19	  24
  19	  25
  19	  26
  19	  28
  19	  30
  19	  31
  19	  36
  19	  37
  19	  38
  19	  39
  19	  44
  19	  45
  19	  50
  19	  55
  19	  59
  19	  61
  19	  64
  19	  65
  19	  66
  19	  70
  19	  74
  19	  76
  19	  78
  19	  82
  19	  83
  19	  85
  19	  89
  19	  90
  19	  92
  19	  93
  19	  97
  19	  99
  19	 101
  19	 106
  19	 110
  19	 114
  19	 117
  19	 118
  20	  23
  20	  24
  20	  27
  20	  31
  20	  37
  20	  40
  20	  41
  20	  43
  20	  47
  20	  49
  20	  54
  20	  57
  20	  59
  20	  60
  20	  61
  20	  62
  20	  64
  20	  66
  20	  72
  20	  75
  20	  77
  20	  79
  20	  84
  20	  85
  20	  90
  20	  91
  20	  93
  20	  94
  20	  99
  20	 101
  20	 102
  20	 104
  20	 106
  20	 108
  20	 110
  20	 111
  20	 113
  21	  22
  21	  23
  21	  25
  21	  28
  21	  29
  21	  30
  21	  32
  21	  33
  21	  34
  21	  42
  21	  44
  21	  45
  21	  47
  21	  49
  21	  51
  21	  52
  21	  53
  21	  55
  21	  56
  21	  59
  21	  60
  21	  63
  21	  64
  21	  65
  21	  68
  21	  76
  21	  78
  21	  82
  21	  85
  21	  87
  21	  92
  21	  97
  21	 100
  21	 101
  21	 102
  21	 103
  21	 104
  21	 108
  21	 109
  21	 110
  21	 115
  22	  23
  22	  27
  22	  28
  22	  32
  22	  34
  22	  38
  22	  39
  22	  44
  22	  48
  22	  49
  22	  50
  22	  54
  22	  55
  22	  56
  22	  58
  22	  62
  22	  65
  22	  67
  22	  68
  22	  71
  22	  73
  22	  74
  22	  78
  22	  81
  22	  83
  22	  86
  22	  94
  22	  95
  22	 101
  22	 104
  22	 107
  22	 108
  22	 109
  22	 113
  22	 115
  22	 117
  22	 118
  22	 119
  23	  25
  23	  26
  23	  27
  23	  28
  23	  30
  23	  31
  23	  32
  23	  33
  23	  35
  23	  36
  23	  39
  23	  40
  23	  45
  23	  46
  23	  48
  23	  52
  23	  53
  23	  57
  23	  59
  23	  61
  23	  64
  23	  67
  23	  69
  23	  70
  23	  72
  23	  75
  23	  77
  23	  78
  23	  98
  23	 101
  23	 103
  23	 106
  23	 111
  23	 117
  23	 119
  24	  25
  24	  35
  24	  36
  24	  43
  24	  46
  24	  50
  24	  56
  24	  59
  24	  62
  24	  66
  24	  67
  24	  72
  24	  73
  24	  74
  24	  75
  24	  76
  24	  80
  24	  81
  24	  84
  24	  86
  24	  87
  24	  88
  24	  89
  24	  90
  24	  91
  24	  92
  24	  96
  24	  97
  24	  99
  24	 109
  24	 110
  24	 113
  24	 114
  24	 115
  24	 116
  25	  26
  25	  27
  25	  30
  25	  31
  25	  33
  25	  34
  25	  35
  25	  36
  25	  39
  25	  43
  25	  44
  25	  45
  25	  46
  25	  47
  25	  51
  25	  52
  25	  53
  25	  60
  25	  66
  25	  68
  25	  69
  25	  75
  25	  76
  25	  77
  25	  78
  25	  82
  25	  83
  25	  93
  25	  95
  25	  96
  25	  98
  25	  99
  25	 107
  25	 109
  25	 110
  25	 111
  25	 112
  25	 115
  25	 118
  25	 119
  26	  27
  26	  28
  26	  30
  26	  31
  26	  33
  26	  37
  26	  41
  26	  42
  26	  43
  26	  44
  26	  45
  26	  46
  26	  47
  26	  48
  26	  49
  26	  51
  26	  52
  26	  54
  26	  57
  26	  58
  26	  61
  26	  64
  26	  69
  26	  70
  26	  71
  26	  80
  26	  85
  26	  86
  26	  90
  26	  91
  26	  93
  26	  95
  26	  96
  26	  97
  26	 102
  26	 111
  26	 112
  26	 116
  26	 118
  27	  28
  27	  29
  27	  30
  27	  31
  27	  35
  27	  38
  27	  39
  27	  49
  27	  52
  27	  54
  27	  55
  27	  56
  27	  57
  27	  60
  27	  66
  27	  68
  27	  71
  27	  72
  27	  77
  27	  79
  27	  81
  27	  83
  27	  85
  27	  94
  27	  96
  27	  99
  27	 101
  27	 103
  27	 107
  27	 108
  27	 109
  27	 110
  27	 111
  27	 112
  27	 113
  27	 116
  28	  30
  28	  33
  28	  35
  28	  38
  28	  39
  28	  41
  28	  47
  28	  48
  28	  49
  28	  50
  28	  53
  28	  55
  28	  56
  28	  57
  28	  58
  28	  59
  28	  61
  28	  62
  28	  63
  28	  64
  28	  65
  28	  67
  28	  68
  28	  69
  28	  70
  28	  72
  28	  78
  28	  80
  28	  82
  28	  84
  28	  86
  28	  87
  28	  88
  28	  90
  28	  92
  28	  95
  28	  96
  28	  97
  28	  98
  28	  99
  28	 100
  28	 101
  28	 105
  28	 109
  28	 111
  28	 112
  28	 113
  28	 115
  28	 119
  29	  33
  29	  35
  29	  36
  29	  37
  29	  38
  29	  39
  29	  42
  29	  45
  29	  48
  29	  50
  29	  51
  29	  53
  29	  54
  29	  57
  29	  58
  29	  63
  29	  66
  29	  72
  29	  80
  29	  92
  29	  94
  29	  99
  29	 100
  29	 109
  30	  32
  30	  33
  30	  35
  30	  36
  30	  39
  30	  42
  30	  43
  30	  44
  30	  45
  30	  46
  30	  47
  30	  49
  30	  50
  30	  53
  30	  54
  30	  56
  30	  57
  30	  64
  30	  72
  30	  74
  30	  78
  30	  80
  30	  86
  30	  88
  30	  90
  30	  92
  30	  95
  30	  96
  30	  98
  30	  99
  30	 100
  30	 101
  30	 109
  30	 110
  30	 111
  30	 112
  30	 113
  30	 119
  31	  37
  31	  38
  31	  41
  31	  47
  31	  51
  31	  54
  31	  55
  31	  56
  31	  57
  31	  58
  31	  62
  31	  67
  31	  70
  31	  79
  31	  80
  31	  85
  31	  90
  31	  93
  31	  94
  31	  98
  31	  99
  31	 101
  31	 104
  31	 108
  31	 111
  31	 116
  31	 118
  32	  33
  32	  34
  32	  35
  32	  36
  32	  38
  32	  42
  32	  46
  32	  47
  32	  51
  32	  52
  32	  56
  32	  59
  32	  60
  32	  61
  32	  63
  32	  64
  32	  65
  32	  68
  32	  70
  32	  78
  32	  79
  32	  80
  32	  81
  32	  83
  32	  86
  32	  88
  32	  90
  32	  91
  32	  92
  32	  96
  32	  99
  32	 101
  32	 103
  32	 109
  32	 112
  32	 114
  32	 116
  33	  37
  33	  39
  33	  41
  33	  42
  33	  43
  33	  44
  33	  46
  33	  52
  33	  56
  33	  64
  33	  70
  33	  74
  33	  77
  33	  80
  33	  81
  33	  82
  33	  84
  33	  89
  33	  90
  33	  94
  33	  96
  33	 100
  33	 103
  33	 105
  33	 109
  33	 113
  33	 117
  33	 118
  34	  36
  34	  39
  34	  40
  34	  41
  34	  43
  34	  47
  34	  48
  34	  51
  34	  56
  34	  57
  34	  58
  34	  60
  34	  63
  34	  67
  34	  68
  34	  70
  34	  72
  34	  74
  34	  80
  34	  91
  34	  92
  34	  93
  34	  96
  34	  99
  34	 100
  34	 104
  34	 105
  34	 108
  34	 110
  34	 111
  34	 112
  34	 115
  34	 116
  34	 118
  35	  37
  35	  43
  35	  45
  35	  46
  35	  49
  35	  50
  35	  54
  35	  59
  35	  61
  35	  63
  35	  65
  35	  68
  35	  75
  35	  79
  35	  80
  35	  83
  35	  86
  35	  87
  35	  90
  35	  93
  35	  98
  35	 101
  35	 105
  35	 106
  35	 110
  35	 112
  35	 114
  35	 119
  36	  37
  36	  38
  36	  40
  36	  42
  36	  43
  36	  44
  36	  45
  36	  46
  36	  47
  36	  48
  36	  49
  36	  53
  36	  55
  36	  57
  36	  63
  36	  64
  36	  69
  36	  73
  36	  74
  36	  76
  36	  80
  36	  83
  36	  86
  36	  87
  36	  90
  36	  93
  36	  94
  36	  96
  36	  97
  36	  98
  36	  99
  36	 100
  36	 102
  36	 103
  36	 104
  36	 107
  36	 109
  36	 114
  36	 117
  37	  38
  37	  43
  37	  48
  37	  50
  37	  53
  37	  57
  37	  61
  37	  62
  37	  70
  37	  71
  37	  72
  37	  77
  37	  79
  37	  84
  37	  88
  37	  93
  37	  95
  37	 100
  37	 101
  37	 106
  37	 109
  37	 111
  37	 113
  37	 114
  37	 116
  37	 118
  38	  40
  38	  41
  38	  46
  38	  47
  38	  49
  38	  53
  38	  54
  38	  56
  38	  66
  38	  67
  38	  69
  38	  70
  38	  74
  38	  77
  38	  83
  38	  85
  38	  87
  38	  89
  38	  92
  38	  93
  38	  94
  38	  96
  38	  97
  38	  99
  38	 101
  38	 103
  38	 106
  38	 109
  38	 111
  38	 112
  38	 115
  39	  41
  39	  46
  39	  47
  39	  51
  39	  53
  39	  59
  39	  65
  39	  66
  39	  74
  39	  75
  39	  77
  39	  78
  39	  82
  39	  85
  39	  92
  39	  96
  39	 101
  39	 102
  39	 103
  39	 105
  39	 106
  39	 112
  39	 116
  39	 118
  39	 119
  40	  42
  40	  43
  40	  44
  40	  46
  40	  47
  40	  48
  40	  50
  40	  53
  40	  54
  40	  57
  40	  58
  40	  64
  40	  69
  40	  72
  40	  80
  40	  81
  40	  82
  40	  88
  40	  92
  40	  95
  40	  99
  40	 100
  40	 102
  40	 104
  40	 105
  40	 106
  40	 109
  40	 114
  41	  51
  41	  52
  41	  53
  41	  55
  41	  58
  41	  61
  41	  64
  41	  66
  41	  67
  41	  77
  41	  79
  41	  81
  41	  84
  41	  85
  41	  88
  41	  89
  41	  90
  41	  91
  41	  92
  41	  95
  41	  96
  41	 103
  41	 111
  41	 116
  41	 118
  41	 119
  42	  45
  42	  48
  42	  49
  42	  59
  42	  60
  42	  61
  42	  62
  42	  63
  42	  64
  42	  66
  42	  69
  42	  71
  42	  74
  42	  77
  42	  80
  42	  81
  42	  83
  42	  85
  42	  87
  42	  88
  42	  93
  42	  96
  42	  98
  42	 103
  42	 104
  42	 105
  42	 107
  42	 108
  42	 113
  42	 117
  42	 118
  42	 119
  43	  44
  43	  48
  43	  50
  43	  51
  43	  52
  43	  53
  43	  58
  43	  60
  43	  61
  43	  62
  43	  63
  43	  64
  43	  65
  43	  71
  43	  72
  43	  73
  43	  74
  43	  79
  43	  80
  43	  90
  43	  97
  43	 101
  43	 106
  43	 108
  43	 109
  43	 112
  43	 113
  43	 114
  43	 115
  43	 116
  43	 117
  43	 118
  44	  45
  44	  48
  44	  52
  44	  54
  44	  56
  44	  61
  44	  64
  44	  65
  44	  66
  44	  67
  44	  68
  44	  69
  44	  70
  44	  75
  44	  79
  44	  80
  44	  81
  44	  82
  44	  86
  44	  90
  44	  91
  44	  97
  44	  98
  44	 102
  44	 105
  44	 107
  44	 108
  44	 111
  44	 113
  44	 115
  44	 117
  45	  46
  45	  48
  45	  49
  45	  50
  45	  53
  45	  55
  45	  57
  45	  58
  45	  59
  45	  62
  45	  65
  45	  69
  45	  74
  45	  76
  45	  77
  45	  79
  45	  83
  45	  84
  45	  85
  45	  88
  45	  91
  45	  92
  45	  93
  45	  94
  45	 101
  45	 102
  45	 103
  45	 105
  45	 106
  45	 107
  45	 108
  45	 111
  45	 113
  45	 114
  45	 117
  45	 119
  46	  47
  46	  53
  46	  54
  46	  56
  46	  57
  46	  58
  46	  59
  46	  60
  46	  63
  46	  67
  46	  68
  46	  72
  46	  79
  46	  81
  46	  89
  46	  94
  46	  95
  46	 101
  46	 108
  46	 110
  46	 111
  46	 112
  46	 113
  46	 114
  46	 116
  46	 117
  47	  48
  47	  49
  47	  58
  47	  59
  47	  60
  47	  64
  47	  67
  47	  69
  47	  75
  47	  79
  47	  80
  47	  81
  47	  83
  47	  84
  47	  85
  47	  87
  47	  93
  47	  95
  47	  96
  47	  97
  47	  99
  47	 101
  47	 103
  47	 106
  47	 107
  47	 110
  47	 115
  47	 118
  47	 119
  48	  51
  48	  55
  48	  57
  48	  58
  48	  59
  48	  60
  48	  61
  48	  64
  48	  65
  48	  67
  48	  68
  48	  70
  48	  71
  48	  72
  48	  73
  48	  75
  48	  76
  48	  80
  48	  82
  48	  85
  48	  86
  48	  89
  48	  90
  48	  91
  48	  93
  48	  97
  48	  98
  48	 100
  48	 103
  48	 104
  48	 105
  48	 106
  48	 107
  48	 108
  48	 110
  48	 118
  49	  54
  49	  55
  49	  56
  49	  57
  49	  59
  49	  61
  49	  64
  49	  66
  49	  67
  49	  73
  49	  74
  49	  77
  49	  78
  49	  79
  49	  80
  49	  81
  49	  82
  49	  84
  49	  86
  49	  92
  49	  93
  49	  94
  49	  95
  49	  97
  49	  98
  49	 102
  49	 103
  49	 105
  49	 110
  49	 115
  49	 118
  50	  51
  50	  52
  50	  53
  50	  54
  50	  55
  50	  56
  50	  58
  50	  59
  50	  60
  50	  62
  50	  65
  50	  66
  50	  67
  50	  68
  50	  74
  50	  79
  50	  80
  50	  81
  50	  83
  50	  85
  50	  86
  50	  89
  50	  93
  50	  95
  50	  96
  50	  97
  50	 100
  50	 104
  50	 105
  50	 106
  50	 109
  50	 110
  50	 112
  50	 114
  50	 117
  50	 118
  50	 119
  51	  52
  51	  53
  51	  55
  51	  57
  51	  58
  51	  59
  51	  60
  51	  61
  51	  62
  51	  68
  51	  71
  51	  73
  51	  74
  51	  77
  51	  79
  51	  80
  51	  82
  51	  83
  51	  84
  51	  86
  51	  88
  51	  91
  51	  92
  51	  95
  51	  99
  51	 101
  51	 105
  51	 107
  51	 108
  51	 109
  51	 110
  51	 111
  51	 113
  51	 114
  51	 115
  51	 116
  51	 117
  51	 119
  52	  56
  52	  57
  52	  59
  52	  61
  52	  65
  52	  66
  52	  71
  52	  73
  52	  74
  52	  75
  52	  78
  52	  86
  52	  87
  52	  89
  52	  91
  52	  93
  52	  94
  52	  97
  52	  98
  52	  99
  52	 100
  52	 102
  52	 107
  52	 108
  52	 109
  52	 115
  52	 116
  52	 117
  52	 118
  53	  55
  53	  56
  53	  57
  53	  62
  53	  64
  53	  66
  53	  68
  53	  69
  53	  72
  53	  74
  53	  76
  53	  77
  53	  79
  53	  83
  53	  86
  53	  87
  53	  89
  53	  92
  53	  94
  53	  95
  53	  97
  53	  98
  53	  99
  53	 100
  53	 102
  53	 108
  53	 110
  53	 111
  53	 112
  53	 114
  53	 119
  54	  59
  54	  61
  54	  67
  54	  69
  54	  72
  54	  74
  54	  77
  54	  79
  54	  82
  54	  83
  54	  84
  54	  86
  54	  88
  54	  89
  54	  90
  54	  91
  54	  92
  54	  94
  54	  97
  54	 102
  54	 104
  54	 108
  54	 109
  54	 110
  54	 111
  54	 113
  54	 117
  54	 118
  54	 119
  55	  57
  55	  58
  55	  61
  55	  62
  55	  70
  55	  71
  55	  73
  55	  76
  55	  79
  55	  80
  55	  83
  55	  86
  55	  87
  55	  89
  55	  90
  55	  91
  55	  92
  55	  94
  55	  96
  55	  99
  55	 101
  55	 103
  55	 105
  55	 107
  55	 108
  55	 111
  55	 115
  55	 116
  56	  58
  56	  63
  56	  65
  56	  67
  56	  70
  56	  75
  56	  77
  56	  80
  56	  82
  56	  84
  56	  86
  56	  95
  56	  96
  56	 103
  56	 106
  56	 107
  56	 108
  56	 111
  56	 114
  56	 115
  56	 117
  56	 118
  56	 119
  57	  59
  57	  61
  57	  62
  57	  66
  57	  70
  57	  73
  57	  74
  57	  77
  57	  78
  57	  81
  57	  82
  57	  83
  57	  84
  57	  94
  57	  95
  57	  97
  57	  98
  57	 101
  57	 102
  57	 105
  57	 107
  57	 112
  57	 118
  57	 119
  58	  62
  58	  70
  58	  73
  58	  76
  58	  81
  58	  83
  58	  85
  58	  86
  58	  87
  58	  89
  58	  90
  58	  93
  58	  96
  58	  97
  58	  98
  58	  99
  58	 101
  58	 105
  58	 107
  58	 109
  58	 111
  58	 112
  58	 115
  58	 117
  59	  60
  59	  61
  59	  62
  59	  63
  59	  65
  59	  68
  59	  69
  59	  70
  59	  71
  59	  73
  59	  77
  59	  79
  59	  81
  59	  84
  59	  87
  59	  88
  59	  90
  59	  91
  59	  92
  59	  94
  59	  96
  59	  99
  59	 101
  59	 107
  59	 111
  59	 115
  59	 116
  59	 117
  60	  61
  60	  63
  60	  64
  60	  66
  60	  69
  60	  70
  60	  73
  60	  80
  60	  82
  60	  91
  60	  94
  60	  97
  60	  98
  60	 101
  60	 102
  60	 103
  60	 108
  60	 111
  60	 113
  60	 114
  60	 115
  60	 119
  61	  62
  61	  65
  61	  66
  61	  71
  61	  75
  61	  76
  61	  81
  61	  82
  61	  83
  61	  84
  61	  86
  61	  87
  61	  88
  61	  90
  61	  95
  61	 100
  61	 101
  61	 102
  61	 103
  61	 105
  61	 108
  61	 111
  61	 115
  61	 117
  61	 118
  61	 119
  62	  64
  62	  65
  62	  74
  62	  78
  62	  80
  62	  81
  62	  82
  62	  85
  62	  87
  62	  88
  62	  90
  62	  92
  62	  93
  62	  94
  62	  97
  62	  98
  62	 100
  62	 101
  62	 102
  62	 107
  62	 108
  62	 110
  62	 114
  62	 116
  62	 117
  62	 118
  62	 119
  63	  64
  63	  67
  63	  71
  63	  72
  63	  73
  63	  76
  63	  78
  63	  84
  63	  85
  63	  87
  63	  89
  63	  94
  63	 105
  63	 106
  63	 107
  63	 108
  63	 113
  63	 115
  63	 116
  63	 119
  64	  65
  64	  67
  64	  70
  64	  72
  64	  73
  64	  77
  64	  81
  64	  85
  64	  86
  64	  87
  64	  89
  64	  91
  64	  92
  64	  94
  64	  95
  64	  96
  64	  97
  64	  99
  64	 105
  64	 106
  64	 107
  64	 109
  64	 115
  64	 117
  64	 119
  65	  66
  65	  67
  65	  70
  65	  73
  65	  74
  65	  75
  65	  76
  65	  78
  65	  80
  65	  81
  65	  83
  65	  86
  65	  90
  65	  93
  65	  94
  65	  95
  65	  97
  65	  98
  65	 100
  65	 102
  65	 103
  65	 104
  65	 105
  65	 106
  65	 107
  65	 108
  65	 110
  65	 111
  65	 119
  66	  69
  66	  70
  66	  76
  66	  77
  66	  83
  66	  84
  66	  85
  66	  87
  66	  89
  66	  90
  66	  91
  66	  93
  66	  95
  66	  97
  66	  98
  66	  99
  66	 102
  66	 104
  66	 108
  66	 110
  66	 112
  66	 114
  66	 115
  66	 116
  66	 117
  66	 118
  67	  70
  67	  71
  67	  72
  67	  74
  67	  76
  67	  79
  67	  80
  67	  81
  67	  82
  67	  84
  67	  85
  67	  87
  67	  88
  67	  89
  67	  93
  67	  96
  67	 101
  67	 102
  67	 103
  67	 104
  67	 107
  67	 108
  67	 110
  67	 111
  67	 112
  67	 116
  68	  74
  68	  77
  68	  81
  68	  84
  68	  85
  68	  89
  68	  94
  68	  95
  68	  96
  68	  97
  68	  99
  68	 100
  68	 102
  68	 105
  68	 108
  68	 109
  68	 113
  68	 114
  69	  70
  69	  72
  69	  76
  69	  78
  69	  83
  69	  87
  69	  89
  69	  91
  69	  94
  69	  98
  69	  99
  69	 103
  69	 105
  69	 111
  69	 113
  69	 117
  70	  72
  70	  74
  70	  75
  70	  77
  70	  78
  70	  79
  70	  80
  70	  81
  70	  84
  70	  88
  70	  89
  70	  92
  70	  93
  70	  96
  70	 105
  70	 108
  70	 109
  70	 110
  70	 111
  70	 113
  70	 115
  70	 116
  70	 118
  70	 119
  71	  74
  71	  75
  71	  78
  71	  81
  71	  83
  71	  85
  71	  89
  71	  91
  71	  92
  71	  94
  71	  96
  71	 102
  71	 104
  71	 110
  71	 112
  71	 117
  71	 118
  71	 119
  72	  73
  72	  76
  72	  77
  72	  80
  72	  83
  72	  86
  72	  87
  72	  90
  72	  91
  72	  92
  72	  93
  72	  95
  72	  99
  72	 105
  72	 109
  72	 110
  72	 114
  72	 115
  72	 117
  73	  75
  73	  76
  73	  78
  73	  80
  73	  82
  73	  84
  73	  85
  73	  91
  73	  93
  73	  94
  73	  97
  73	  98
  73	 102
  73	 105
  73	 107
  73	 108
  73	 112
  73	 114
  73	 115
  73	 118
  73	 119
  74	  76
  74	  77
  74	  81
  74	  83
  74	  85
  74	  87
  74	  88
  74	  89
  74	  90
  74	  91
  74	  92
  74	  94
  74	  96
  74	  97
  74	  98
  74	  99
  74	 101
  74	 102
  74	 107
  74	 109
  74	 114
  75	  76
  75	  78
  75	  80
  75	  82
  75	  89
  75	  91
  75	  92
  75	  94
  75	 102
  75	 104
  75	 110
  75	 115
  76	  77
  76	  78
  76	  80
  76	  83
  76	  84
  76	  88
  76	  89
  76	  96
  76	  97
  76	  98
  76	 109
  76	 110
  76	 112
  76	 118
  77	  78
  77	  80
  77	  81
  77	  82
  77	  83
  77	  85
  77	  86
  77	  87
  77	  89
  77	  91
  77	  92
  77	  95
  77	  96
  77	  99
  77	 105
  77	 106
  77	 108
  77	 109
  77	 110
  77	 112
  77	 117
  77	 118
  78	  80
  78	  84
  78	  85
  78	  89
  78	  91
  78	  92
  78	  93
  78	  94
  78	  99
  78	 101
  78	 102
  78	 106
  78	 107
  78	 109
  78	 110
  78	 113
  78	 114
  78	 115
  78	 118
  78	 119
  79	  82
  79	  85
  79	  86
  79	  94
  79	  98
  79	  99
  79	 102
  79	 103
  79	 107
  79	 113
  80	  83
  80	  86
  80	  87
  80	  90
  80	  91
  80	  93
  80	  97
  80	  98
  80	 100
  80	 102
  80	 103
  80	 106
  80	 107
  80	 108
  80	 117
  80	 118
  80	 119
  81	  82
  81	  83
  81	  85
  81	  87
  81	  92
  81	  96
  81	  97
  81	  99
  81	 102
  81	 103
  81	 107
  81	 109
  81	 112
  81	 116
  81	 117
  81	 119
  82	  83
  82	  86
  82	  87
  82	  88
  82	  91
  82	  94
  82	  99
  82	 104
  82	 108
  82	 112
  82	 114
  82	 116
  82	 119
  83	  85
  83	  88
  83	  90
  83	  92
  83	  95
  83	  96
  83	  99
  83	 104
  83	 107
  83	 109
  83	 110
  83	 112
  83	 113
  83	 114
  83	 116
  84	  88
  84	  95
  84	  98
  84	 100
  84	 101
  84	 102
  84	 108
  84	 110
  84	 113
  84	 116
  84	 117
  84	 118
  85	  90
  85	  94
  85	  98
  85	 100
  85	 102
  85	 104
  85	 106
  85	 107
  85	 110
  85	 111
  85	 112
  85	 115
  85	 116
  85	 118
  86	  87
  86	  89
  86	  90
  86	  93
  86	  98
  86	 102
  86	 107
  86	 110
  86	 111
  86	 113
  86	 117
  86	 119
  87	  90
  87	  91
  87	  93
  87	  98
  87	  99
  87	 101
  87	 102
  87	 105
  87	 109
  87	 114
  87	 115
  87	 116
  88	  90
  88	  91
  88	  97
  88	 103
  88	 106
  88	 112
  88	 113
  88	 114
  88	 115
  88	 118
  88	 119
  89	  94
  89	  96
  89	  98
  89	  99
  89	 100
  89	 101
  89	 104
  89	 106
  89	 108
  89	 109
  89	 118
  89	 119
  90	  91
  90	  93
  90	  95
  90	  97
  90	  99
  90	 100
  90	 101
  90	 102
  90	 103
  90	 105
  90	 106
  90	 107
  90	 108
  90	 111
  90	 117
  90	 118
  90	 119
  91	  92
  91	  94
  91	  96
  91	 100
  91	 103
  91	 104
  91	 109
  91	 111
  91	 113
  91	 118
  91	 119
  92	  96
  92	  99
  92	 101
  92	 106
  92	 107
  92	 108
  92	 109
  92	 112
  92	 113
  92	 115
  92	 116
  92	 117
  92	 118
  93	  97
  93	 101
  93	 102
  93	 110
  93	 114
  93	 116
  93	 117
  93	 118
  94	  99
  94	 100
  94	 104
  94	 107
  94	 116
  94	 119
  95	  96
  95	 101
  95	 104
  95	 107
  95	 111
  95	 119
  96	 101
  96	 104
  96	 105
  96	 107
  96	 108
  96	 111
  96	 117
  96	 118
  96	 119
  97	  99
  97	 100
  97	 102
  97	 104
  97	 105
  97	 107
  97	 111
  97	 113
  97	 117
  97	 118
  97	 119
  98	  99
  98	 103
  98	 104
  98	 106
  98	 112
  98	 114
  98	 115
  98	 116
  98	 118
  99	 100
  99	 103
  99	 104
  99	 106
  99	 107
  99	 108
  99	 114
 100	 101
 100	 104
 100	 106
 100	 107
 100	 110
 100	 112
 100	 113
 100	 114
 100	 115
 100	 116
 100	 118
 101	 103
 101	 104
 101	 107
 101	 111
 101	 113
 101	 114
 101	 115
 101	 116
 101	 118
 102	 104
 102	 105
 102	 106
 102	 109
 102	 112
 102	 114
 102	 117
 103	 108
 103	 110
 103	 112
 103	 113
 103	 116
 104	 106
 104	 108
 104	 109
 104	 113
 104	 118
 104	 119
 105	 106
 105	 107
 105	 109
 105	 111
 105	 113
 105	 114
 105	 115
 105	 116
 105	 117
 106	 109
 106	 110
 106	 112
 106	 115
 106	 116
 106	 117
 107	 108
 107	 111
 107	 115
 107	 116
 108	 109
 108	 111
 108	 113
 108	 115
 108	 118
 109	 115
 109	 118
 109	 119
 110	 114
 110	 115
 110	 117
 110	 118
 111	 117
 112	 114
 113	 115
 113	 117
 113	 119
 114	 115
 114	 118
 114	 119
 115	 118
 115	 119
 116	 117
 118	 119
;
